problems/csplib-prob056/sonet-models/noch/O0/minion/model_2-s1ring05-solution000001.solution
language Essence 1.3

letting network be mset({}, {1, 3, 5, 6}, {1, 4, 6, 7}, {2, 4})
$ Visualisation for network
$ 
$ 1 3 5 6
$ 1 4 6 7
$ 2 4

